c nIsolatedPIs 0
c maxPI 16
p cnf 80 193
c gate 17 -8 16 0
-8 -17 0
16 -17 0
8 -16 17 0
c gate 18 8 -16 0
8 -18 0
-16 -18 0
-8 16 18 0
c gate 19 7 -15 0
7 -19 0
-15 -19 0
-7 15 19 0
c gate 20 5 -13 0
5 -20 0
-13 -20 0
-5 13 20 0
c gate 21 -5 13 0
-5 -21 0
13 -21 0
5 -13 21 0
c gate 22 -20 -21 0
-20 -22 0
-21 -22 0
20 21 22 0
c gate 23 6 -14 0
6 -23 0
-14 -23 0
-6 14 23 0
c gate 24 -6 14 0
-6 -24 0
14 -24 0
6 -14 24 0
c gate 25 -23 -24 0
-23 -25 0
-24 -25 0
23 24 25 0
c gate 26 22 25 0
22 -26 0
25 -26 0
-22 -25 26 0
c gate 27 -21 -24 0
-21 -27 0
-24 -27 0
21 24 27 0
c gate 28 -23 -27 0
-23 -28 0
-27 -28 0
23 27 28 0
c gate 29 -26 -28 0
-26 -29 0
-28 -29 0
26 28 29 0
c gate 30 -19 -29 0
-19 -30 0
-29 -30 0
19 29 30 0
c gate 31 -7 15 0
-7 -31 0
15 -31 0
7 -15 31 0
c gate 32 -30 -31 0
-30 -32 0
-31 -32 0
30 31 32 0
c gate 33 -18 -32 0
-18 -33 0
-32 -33 0
18 32 33 0
c gate 34 -17 -33 0
-17 -34 0
-33 -34 0
17 33 34 0
c gate 35 -1 9 0
-1 -35 0
9 -35 0
1 -9 35 0
c gate 36 2 -10 0
2 -36 0
-10 -36 0
-2 10 36 0
c gate 37 -2 10 0
-2 -37 0
10 -37 0
2 -10 37 0
c gate 38 -36 -37 0
-36 -38 0
-37 -38 0
36 37 38 0
c gate 39 1 -9 0
1 -39 0
-9 -39 0
-1 9 39 0
c gate 40 38 -39 0
38 -40 0
-39 -40 0
-38 39 40 0
c gate 41 -35 40 0
-35 -41 0
40 -41 0
35 -40 41 0
c gate 42 4 -12 0
4 -42 0
-12 -42 0
-4 12 42 0
c gate 43 -4 12 0
-4 -43 0
12 -43 0
4 -12 43 0
c gate 44 -42 -43 0
-42 -44 0
-43 -44 0
42 43 44 0
c gate 45 -3 11 0
-3 -45 0
11 -45 0
3 -11 45 0
c gate 46 3 -11 0
3 -46 0
-11 -46 0
-3 11 46 0
c gate 47 -45 -46 0
-45 -47 0
-46 -47 0
45 46 47 0
c gate 48 44 47 0
44 -48 0
47 -48 0
-44 -47 48 0
c gate 49 41 48 0
41 -49 0
48 -49 0
-41 -48 49 0
c gate 50 -17 -18 0
-17 -50 0
-18 -50 0
17 18 50 0
c gate 51 -19 -31 0
-19 -51 0
-31 -51 0
19 31 51 0
c gate 52 50 51 0
50 -52 0
51 -52 0
-50 -51 52 0
c gate 53 26 52 0
26 -53 0
52 -53 0
-26 -52 53 0
c gate 54 49 53 0
49 -54 0
53 -54 0
-49 -53 54 0
c gate 55 -37 -40 0
-37 -55 0
-40 -55 0
37 40 55 0
c gate 56 -46 -55 0
-46 -56 0
-55 -56 0
46 55 56 0
c gate 57 -45 -56 0
-45 -57 0
-56 -57 0
45 56 57 0
c gate 58 -42 -57 0
-42 -58 0
-57 -58 0
42 57 58 0
c gate 59 -43 -58 0
-43 -59 0
-58 -59 0
43 58 59 0
c gate 60 53 59 0
53 -60 0
59 -60 0
-53 -59 60 0
c gate 61 -34 -60 0
-34 -61 0
-60 -61 0
34 60 61 0
c gate 62 -54 -61 0
-54 -62 0
-61 -62 0
54 61 62 0
c gate 63 -34 62 0
-34 -63 0
62 -63 0
34 -62 63 0
c gate 64 -41 -55 0
-41 -64 0
-55 -64 0
41 55 64 0
c gate 65 -46 64 0
-46 -65 0
64 -65 0
46 -64 65 0
c gate 66 -45 -65 0
-45 -66 0
-65 -66 0
45 65 66 0
c gate 67 34 -66 0
34 -67 0
-66 -67 0
-34 66 67 0
c gate 68 -34 57 0
-34 -68 0
57 -68 0
34 -57 68 0
c gate 69 -67 -68 0
-67 -69 0
-68 -69 0
67 68 69 0
c gate 70 44 -69 0
44 -70 0
-69 -70 0
-44 69 70 0
c gate 71 -44 69 0
-44 -71 0
69 -71 0
44 -69 71 0
c gate 72 -70 -71 0
-70 -72 0
-71 -72 0
70 71 72 0
c gate 73 62 -66 0
62 -73 0
-66 -73 0
-62 66 73 0
c gate 74 57 -62 0
57 -74 0
-62 -74 0
-57 62 74 0
c gate 75 -73 -74 0
-73 -75 0
-74 -75 0
73 74 75 0
c gate 76 44 -75 0
44 -76 0
-75 -76 0
-44 75 76 0
c gate 77 -44 75 0
-44 -77 0
75 -77 0
44 -75 77 0
c gate 78 -76 -77 0
-76 -78 0
-77 -78 0
76 77 78 0
c gate 79 72 -78 0
72 -79 0
-78 -79 0
-72 78 79 0
c gate 80 63 -79 0
63 -80 0
-79 -80 0
-63 79 80 0
c PO
80 0
